70
1 0 88
2 0 92
2 1 30
3 0 106
3 1 102
3 2 102
4 0 74
4 1 103
4 2 98
4 3 67
5 0 117
5 1 62
5 2 25
5 3 11
5 4 16
6 0 71
6 1 90
6 2 68
6 3 82
6 4 7
6 5 72
7 0 38
7 1 105
7 2 51
7 3 117
7 4 84
7 5 34
7 6 35
8 0 7
8 1 14
8 2 55
8 3 24
8 4 23
8 5 120
8 6 60
8 7 64
9 0 83
9 1 106
9 2 29
9 3 115
9 4 98
9 5 4
9 6 49
9 7 65
9 8 76
10 0 14
10 1 6
10 2 85
10 3 118
10 4 101
10 5 120
10 6 78
10 7 75
10 8 86
10 9 25
11 0 83
11 1 42
11 2 20
11 3 29
11 4 105
11 5 83
11 6 92
11 7 32
11 8 94
11 9 40
11 10 46
12 0 24
12 1 28
12 2 68
12 3 31
12 4 9
12 5 57
12 6 30
12 7 76
12 8 73
12 9 115
12 10 20
12 11 27
13 0 70
13 1 107
13 2 95
13 3 79
13 4 65
13 5 2
13 6 88
13 7 106
13 8 109
13 9 55
13 10 58
13 11 101
13 12 65
14 0 59
14 1 20
14 2 27
14 3 26
14 4 73
14 5 56
14 6 114
14 7 96
14 8 31
14 9 112
14 10 69
14 11 97
14 12 8
14 13 26
15 0 12
15 1 102
15 2 61
15 3 21
15 4 67
15 5 3
15 6 29
15 7 76
15 8 55
15 9 33
15 10 75
15 11 51
15 12 9
15 13 46
15 14 21
16 0 120
16 1 5
16 2 113
16 3 104
16 4 61
16 5 86
16 6 67
16 7 73
16 8 52
16 9 43
16 10 29
16 11 43
16 12 3
16 13 13
16 14 63
16 15 69
17 0 13
17 1 20
17 2 104
17 3 2
17 4 7
17 5 95
17 6 63
17 7 17
17 8 116
17 9 117
17 10 74
17 11 77
17 12 52
17 13 114
17 14 43
17 15 81
17 16 32
18 0 90
18 1 79
18 2 2
18 3 26
18 4 82
18 5 40
18 6 25
18 7 65
18 8 37
18 9 108
18 10 26
18 11 97
18 12 26
18 13 68
18 14 51
18 15 59
18 16 112
18 17 100
19 0 96
19 1 17
19 2 61
19 3 2
19 4 80
19 5 23
19 6 85
19 7 45
19 8 39
19 9 77
19 10 110
19 11 97
19 12 66
19 13 34
19 14 6
19 15 32
19 16 82
19 17 22
19 18 28
20 0 37
20 1 85
20 2 58
20 3 110
20 4 60
20 5 95
20 6 99
20 7 88
20 8 60
20 9 120
20 10 3
20 11 35
20 12 25
20 13 13
20 14 73
20 15 77
20 16 9
20 17 112
20 18 61
20 19 33
21 0 76
21 1 55
21 2 1
21 3 71
21 4 100
21 5 73
21 6 73
21 7 60
21 8 72
21 9 84
21 10 68
21 11 58
21 12 105
21 13 83
21 14 24
21 15 20
21 16 116
21 17 92
21 18 19
21 19 49
21 20 118
22 0 10
22 1 45
22 2 39
22 3 79
22 4 58
22 5 40
22 6 106
22 7 105
22 8 72
22 9 101
22 10 100
22 11 82
22 12 86
22 13 53
22 14 22
22 15 75
22 16 25
22 17 29
22 18 67
22 19 79
22 20 51
22 21 88
23 0 3
23 1 114
23 2 52
23 3 100
23 4 33
23 5 48
23 6 113
23 7 34
23 8 32
23 9 82
23 10 31
23 11 14
23 12 88
23 13 120
23 14 22
23 15 106
23 16 7
23 17 8
23 18 20
23 19 91
23 20 62
23 21 107
23 22 15
24 0 87
24 1 110
24 2 37
24 3 88
24 4 66
24 5 120
24 6 62
24 7 16
24 8 17
24 9 34
24 10 107
24 11 37
24 12 74
24 13 12
24 14 114
24 15 76
24 16 2
24 17 7
24 18 20
24 19 35
24 20 76
24 21 25
24 22 5
24 23 73
25 0 42
25 1 66
25 2 82
25 3 57
25 4 45
25 5 96
25 6 76
25 7 49
25 8 53
25 9 48
25 10 106
25 11 115
25 12 20
25 13 35
25 14 27
25 15 52
25 16 31
25 17 114
25 18 49
25 19 24
25 20 90
25 21 71
25 22 83
25 23 11
25 24 50
26 0 76
26 1 100
26 2 68
26 3 5
26 4 102
26 5 67
26 6 81
26 7 35
26 8 86
26 9 9
26 10 5
26 11 28
26 12 110
26 13 26
26 14 52
26 15 100
26 16 8
26 17 14
26 18 57
26 19 108
26 20 2
26 21 87
26 22 79
26 23 55
26 24 47
26 25 52
27 0 107
27 1 44
27 2 17
27 3 72
27 4 110
27 5 78
27 6 43
27 7 97
27 8 58
27 9 7
27 10 70
27 11 16
27 12 29
27 13 75
27 14 31
27 15 93
27 16 64
27 17 30
27 18 34
27 19 87
27 20 75
27 21 88
27 22 70
27 23 55
27 24 9
27 25 77
27 26 36
28 0 90
28 1 36
28 2 112
28 3 3
28 4 11
28 5 59
28 6 45
28 7 2
28 8 48
28 9 50
28 10 114
28 11 63
28 12 101
28 13 100
28 14 117
28 15 67
28 16 14
28 17 62
28 18 66
28 19 83
28 20 52
28 21 13
28 22 71
28 23 106
28 24 1
28 25 38
28 26 60
28 27 27
29 0 114
29 1 22
29 2 31
29 3 21
29 4 87
29 5 46
29 6 73
29 7 93
29 8 65
29 9 100
29 10 51
29 11 94
29 12 58
29 13 11
29 14 60
29 15 92
29 16 29
29 17 33
29 18 56
29 19 66
29 20 61
29 21 55
29 22 53
29 23 83
29 24 85
29 25 102
29 26 70
29 27 84
29 28 60
30 0 27
30 1 103
30 2 38
30 3 15
30 4 30
30 5 61
30 6 1
30 7 83
30 8 106
30 9 3
30 10 52
30 11 109
30 12 104
30 13 90
30 14 82
30 15 102
30 16 116
30 17 40
30 18 53
30 19 87
30 20 79
30 21 73
30 22 47
30 23 102
30 24 20
30 25 89
30 26 61
30 27 22
30 28 23
30 29 75
31 0 10
31 1 24
31 2 97
31 3 105
31 4 74
31 5 107
31 6 20
31 7 116
31 8 111
31 9 23
31 10 18
31 11 33
31 12 10
31 13 27
31 14 10
31 15 18
31 16 4
31 17 116
31 18 5
31 19 29
31 20 6
31 21 48
31 22 60
31 23 82
31 24 40
31 25 19
31 26 39
31 27 108
31 28 49
31 29 33
31 30 36
32 0 12
32 1 22
32 2 65
32 3 84
32 4 98
32 5 86
32 6 59
32 7 78
32 8 107
32 9 21
32 10 23
32 11 35
32 12 106
32 13 61
32 14 32
32 15 112
32 16 99
32 17 81
32 18 84
32 19 80
32 20 84
32 21 78
32 22 72
32 23 40
32 24 19
32 25 58
32 26 100
32 27 69
32 28 30
32 29 7
32 30 16
32 31 57
33 0 33
33 1 44
33 2 36
33 3 11
33 4 9
33 5 57
33 6 43
33 7 80
33 8 19
33 9 70
33 10 118
33 11 71
33 12 86
33 13 72
33 14 61
33 15 22
33 16 38
33 17 40
33 18 25
33 19 119
33 20 90
33 21 29
33 22 100
33 23 19
33 24 67
33 25 27
33 26 63
33 27 112
33 28 112
33 29 111
33 30 65
33 31 71
33 32 25
34 0 70
34 1 60
34 2 20
34 3 8
34 4 50
34 5 6
34 6 102
34 7 20
34 8 110
34 9 9
34 10 107
34 11 111
34 12 91
34 13 4
34 14 45
34 15 50
34 16 7
34 17 105
34 18 40
34 19 110
34 20 25
34 21 83
34 22 100
34 23 44
34 24 69
34 25 10
34 26 24
34 27 97
34 28 82
34 29 98
34 30 53
34 31 77
34 32 100
34 33 41
35 0 58
35 1 18
35 2 13
35 3 17
35 4 106
35 5 88
35 6 38
35 7 15
35 8 6
35 9 95
35 10 35
35 11 47
35 12 26
35 13 9
35 14 74
35 15 21
35 16 70
35 17 13
35 18 82
35 19 86
35 20 56
35 21 115
35 22 76
35 23 54
35 24 44
35 25 40
35 26 76
35 27 92
35 28 27
35 29 112
35 30 59
35 31 9
35 32 47
35 33 62
35 34 73
36 0 18
36 1 108
36 2 1
36 3 83
36 4 99
36 5 35
36 6 80
36 7 102
36 8 70
36 9 115
36 10 33
36 11 107
36 12 74
36 13 77
36 14 64
36 15 117
36 16 42
36 17 100
36 18 58
36 19 117
36 20 66
36 21 120
36 22 59
36 23 13
36 24 62
36 25 107
36 26 115
36 27 96
36 28 112
36 29 51
36 30 14
36 31 100
36 32 49
36 33 112
36 34 43
36 35 15
37 0 98
37 1 79
37 2 109
37 3 94
37 4 105
37 5 101
37 6 117
37 7 35
37 8 76
37 9 96
37 10 72
37 11 118
37 12 98
37 13 97
37 14 94
37 15 7
37 16 27
37 17 85
37 18 83
37 19 102
37 20 58
37 21 67
37 22 117
37 23 25
37 24 1
37 25 88
37 26 66
37 27 1
37 28 120
37 29 32
37 30 38
37 31 36
37 32 73
37 33 45
37 34 86
37 35 71
37 36 94
38 0 59
38 1 1
38 2 21
38 3 57
38 4 20
38 5 99
38 6 70
38 7 5
38 8 86
38 9 35
38 10 75
38 11 12
38 12 55
38 13 82
38 14 57
38 15 28
38 16 112
38 17 71
38 18 98
38 19 25
38 20 57
38 21 116
38 22 2
38 23 81
38 24 106
38 25 56
38 26 105
38 27 54
38 28 35
38 29 11
38 30 40
38 31 111
38 32 36
38 33 116
38 34 28
38 35 17
38 36 6
38 37 88
39 0 6
39 1 65
39 2 94
39 3 113
39 4 13
39 5 66
39 6 7
39 7 54
39 8 97
39 9 53
39 10 87
39 11 77
39 12 91
39 13 13
39 14 26
39 15 119
39 16 104
39 17 84
39 18 104
39 19 38
39 20 109
39 21 33
39 22 31
39 23 88
39 24 119
39 25 118
39 26 104
39 27 18
39 28 109
39 29 34
39 30 44
39 31 92
39 32 53
39 33 41
39 34 63
39 35 10
39 36 5
39 37 64
39 38 63
40 0 14
40 1 42
40 2 89
40 3 2
40 4 10
40 5 76
40 6 107
40 7 41
40 8 74
40 9 6
40 10 99
40 11 92
40 12 32
40 13 32
40 14 70
40 15 69
40 16 112
40 17 109
40 18 63
40 19 46
40 20 48
40 21 95
40 22 11
40 23 9
40 24 25
40 25 7
40 26 107
40 27 19
40 28 44
40 29 57
40 30 67
40 31 62
40 32 105
40 33 77
40 34 78
40 35 84
40 36 111
40 37 107
40 38 27
40 39 56
41 0 16
41 1 118
41 2 20
41 3 7
41 4 56
41 5 3
41 6 42
41 7 40
41 8 59
41 9 22
41 10 2
41 11 5
41 12 13
41 13 6
41 14 24
41 15 67
41 16 6
41 17 93
41 18 113
41 19 2
41 20 80
41 21 43
41 22 68
41 23 83
41 24 104
41 25 84
41 26 62
41 27 106
41 28 12
41 29 30
41 30 26
41 31 102
41 32 118
41 33 45
41 34 14
41 35 63
41 36 89
41 37 103
41 38 113
41 39 108
41 40 73
42 0 11
42 1 76
42 2 54
42 3 2
42 4 96
42 5 77
42 6 3
42 7 112
42 8 59
42 9 58
42 10 111
42 11 120
42 12 115
42 13 99
42 14 22
42 15 10
42 16 48
42 17 42
42 18 33
42 19 51
42 20 10
42 21 31
42 22 93
42 23 87
42 24 80
42 25 27
42 26 79
42 27 60
42 28 59
42 29 3
42 30 28
42 31 99
42 32 57
42 33 27
42 34 4
42 35 24
42 36 65
42 37 81
42 38 114
42 39 7
42 40 66
42 41 77
43 0 77
43 1 48
43 2 35
43 3 103
43 4 113
43 5 37
43 6 108
43 7 96
43 8 73
43 9 55
43 10 104
43 11 119
43 12 116
43 13 108
43 14 54
43 15 19
43 16 8
43 17 77
43 18 7
43 19 54
43 20 47
43 21 106
43 22 19
43 23 23
43 24 52
43 25 112
43 26 66
43 27 91
43 28 52
43 29 6
43 30 13
43 31 68
43 32 29
43 33 100
43 34 56
43 35 39
43 36 21
43 37 120
43 38 5
43 39 1
43 40 6
43 41 51
43 42 65
44 0 20
44 1 2
44 2 116
44 3 97
44 4 65
44 5 107
44 6 52
44 7 63
44 8 22
44 9 103
44 10 81
44 11 41
44 12 50
44 13 112
44 14 75
44 15 34
44 16 53
44 17 76
44 18 108
44 19 68
44 20 44
44 21 65
44 22 15
44 23 19
44 24 116
44 25 91
44 26 23
44 27 90
44 28 67
44 29 70
44 30 15
44 31 112
44 32 69
44 33 93
44 34 22
44 35 94
44 36 111
44 37 27
44 38 58
44 39 13
44 40 23
44 41 116
44 42 12
44 43 3
45 0 18
45 1 100
45 2 84
45 3 97
45 4 29
45 5 22
45 6 104
45 7 115
45 8 118
45 9 56
45 10 102
45 11 118
45 12 58
45 13 73
45 14 49
45 15 52
45 16 42
45 17 53
45 18 100
45 19 21
45 20 115
45 21 89
45 22 64
45 23 94
45 24 78
45 25 56
45 26 66
45 27 80
45 28 45
45 29 41
45 30 4
45 31 49
45 32 109
45 33 108
45 34 60
45 35 21
45 36 68
45 37 70
45 38 46
45 39 46
45 40 17
45 41 63
45 42 28
45 43 107
45 44 50
46 0 15
46 1 68
46 2 52
46 3 62
46 4 61
46 5 25
46 6 12
46 7 106
46 8 60
46 9 72
46 10 111
46 11 93
46 12 95
46 13 66
46 14 13
46 15 53
46 16 31
46 17 22
46 18 34
46 19 51
46 20 86
46 21 28
46 22 101
46 23 77
46 24 70
46 25 113
46 26 45
46 27 25
46 28 18
46 29 8
46 30 72
46 31 15
46 32 71
46 33 108
46 34 45
46 35 40
46 36 84
46 37 24
46 38 77
46 39 83
46 40 12
46 41 64
46 42 64
46 43 115
46 44 60
46 45 48
47 0 98
47 1 100
47 2 11
47 3 1
47 4 56
47 5 60
47 6 18
47 7 98
47 8 8
47 9 47
47 10 76
47 11 3
47 12 41
47 13 15
47 14 17
47 15 74
47 16 120
47 17 76
47 18 67
47 19 100
47 20 70
47 21 14
47 22 49
47 23 114
47 24 30
47 25 44
47 26 58
47 27 106
47 28 54
47 29 48
47 30 58
47 31 111
47 32 3
47 33 76
47 34 81
47 35 77
47 36 21
47 37 112
47 38 86
47 39 103
47 40 42
47 41 43
47 42 33
47 43 1
47 44 116
47 45 38
47 46 5
48 0 62
48 1 63
48 2 65
48 3 31
48 4 110
48 5 64
48 6 17
48 7 105
48 8 87
48 9 36
48 10 57
48 11 105
48 12 67
48 13 64
48 14 87
48 15 69
48 16 95
48 17 28
48 18 55
48 19 92
48 20 93
48 21 56
48 22 55
48 23 119
48 24 57
48 25 95
48 26 70
48 27 63
48 28 6
48 29 71
48 30 69
48 31 70
48 32 84
48 33 73
48 34 116
48 35 5
48 36 85
48 37 26
48 38 66
48 39 74
48 40 92
48 41 59
48 42 4
48 43 24
48 44 85
48 45 117
48 46 106
48 47 118
49 0 50
49 1 77
49 2 47
49 3 46
49 4 68
49 5 74
49 6 71
49 7 4
49 8 34
49 9 64
49 10 67
49 11 37
49 12 3
49 13 78
49 14 119
49 15 8
49 16 31
49 17 5
49 18 49
49 19 89
49 20 87
49 21 64
49 22 27
49 23 101
49 24 31
49 25 30
49 26 56
49 27 59
49 28 76
49 29 94
49 30 9
49 31 84
49 32 100
49 33 62
49 34 101
49 35 33
49 36 70
49 37 64
49 38 70
49 39 93
49 40 30
49 41 18
49 42 11
49 43 102
49 44 48
49 45 6
49 46 103
49 47 92
49 48 50
50 0 51
50 1 84
50 2 11
50 3 33
50 4 91
50 5 89
50 6 97
50 7 23
50 8 18
50 9 56
50 10 33
50 11 86
50 12 18
50 13 78
50 14 107
50 15 77
50 16 73
50 17 61
50 18 34
50 19 77
50 20 20
50 21 35
50 22 52
50 23 76
50 24 7
50 25 28
50 26 12
50 27 19
50 28 73
50 29 67
50 30 43
50 31 44
50 32 64
50 33 103
50 34 19
50 35 52
50 36 107
50 37 29
50 38 34
50 39 35
50 40 37
50 41 108
50 42 120
50 43 33
50 44 101
50 45 1
50 46 39
50 47 106
50 48 72
50 49 28
51 0 94
51 1 93
51 2 111
51 3 15
51 4 111
51 5 101
51 6 112
51 7 22
51 8 14
51 9 84
51 10 51
51 11 58
51 12 35
51 13 28
51 14 92
51 15 6
51 16 86
51 17 109
51 18 9
51 19 44
51 20 113
51 21 110
51 22 95
51 23 91
51 24 53
51 25 61
51 26 78
51 27 61
51 28 92
51 29 116
51 30 52
51 31 115
51 32 7
51 33 14
51 34 8
51 35 110
51 36 31
51 37 49
51 38 9
51 39 20
51 40 56
51 41 92
51 42 38
51 43 112
51 44 28
51 45 113
51 46 60
51 47 53
51 48 80
51 49 117
51 50 2
52 0 15
52 1 87
52 2 116
52 3 2
52 4 3
52 5 10
52 6 49
52 7 93
52 8 46
52 9 44
52 10 68
52 11 94
52 12 70
52 13 86
52 14 95
52 15 11
52 16 101
52 17 113
52 18 99
52 19 105
52 20 49
52 21 81
52 22 38
52 23 26
52 24 5
52 25 54
52 26 16
52 27 66
52 28 18
52 29 53
52 30 41
52 31 48
52 32 100
52 33 37
52 34 94
52 35 21
52 36 70
52 37 67
52 38 78
52 39 26
52 40 75
52 41 12
52 42 64
52 43 53
52 44 107
52 45 15
52 46 101
52 47 23
52 48 41
52 49 48
52 50 62
52 51 22
53 0 114
53 1 70
53 2 54
53 3 66
53 4 78
53 5 26
53 6 11
53 7 63
53 8 15
53 9 48
53 10 14
53 11 32
53 12 1
53 13 58
53 14 8
53 15 76
53 16 19
53 17 5
53 18 57
53 19 24
53 20 110
53 21 19
53 22 95
53 23 85
53 24 59
53 25 91
53 26 15
53 27 75
53 28 118
53 29 45
53 30 82
53 31 86
53 32 75
53 33 94
53 34 36
53 35 83
53 36 30
53 37 27
53 38 74
53 39 34
53 40 8
53 41 33
53 42 77
53 43 51
53 44 34
53 45 64
53 46 93
53 47 38
53 48 20
53 49 76
53 50 77
53 51 71
53 52 62
54 0 40
54 1 31
54 2 100
54 3 77
54 4 79
54 5 28
54 6 14
54 7 51
54 8 40
54 9 30
54 10 58
54 11 115
54 12 1
54 13 117
54 14 41
54 15 103
54 16 120
54 17 116
54 18 36
54 19 38
54 20 62
54 21 55
54 22 105
54 23 35
54 24 84
54 25 2
54 26 18
54 27 82
54 28 97
54 29 39
54 30 33
54 31 23
54 32 57
54 33 88
54 34 45
54 35 30
54 36 99
54 37 45
54 38 34
54 39 33
54 40 104
54 41 93
54 42 19
54 43 2
54 44 67
54 45 50
54 46 112
54 47 114
54 48 34
54 49 85
54 50 10
54 51 94
54 52 90
54 53 23
55 0 26
55 1 73
55 2 64
55 3 1
55 4 52
55 5 34
55 6 95
55 7 117
55 8 70
55 9 11
55 10 102
55 11 99
55 12 78
55 13 85
55 14 72
55 15 36
55 16 4
55 17 2
55 18 12
55 19 37
55 20 63
55 21 46
55 22 83
55 23 41
55 24 5
55 25 40
55 26 58
55 27 85
55 28 72
55 29 101
55 30 19
55 31 53
55 32 2
55 33 73
55 34 40
55 35 108
55 36 33
55 37 1
55 38 116
55 39 35
55 40 83
55 41 80
55 42 68
55 43 100
55 44 14
55 45 100
55 46 13
55 47 25
55 48 118
55 49 112
55 50 13
55 51 44
55 52 103
55 53 4
55 54 3
56 0 16
56 1 95
56 2 10
56 3 1
56 4 114
56 5 79
56 6 28
56 7 107
56 8 87
56 9 32
56 10 51
56 11 66
56 12 91
56 13 117
56 14 28
56 15 36
56 16 9
56 17 2
56 18 71
56 19 116
56 20 83
56 21 94
56 22 92
56 23 77
56 24 77
56 25 100
56 26 117
56 27 37
56 28 94
56 29 42
56 30 27
56 31 114
56 32 91
56 33 32
56 34 53
56 35 91
56 36 61
56 37 38
56 38 116
56 39 58
56 40 40
56 41 90
56 42 99
56 43 20
56 44 51
56 45 54
56 46 73
56 47 85
56 48 19
56 49 79
56 50 78
56 51 9
56 52 98
56 53 75
56 54 106
56 55 7
57 0 47
57 1 97
57 2 82
57 3 104
57 4 77
57 5 58
57 6 53
57 7 6
57 8 78
57 9 108
57 10 86
57 11 55
57 12 49
57 13 37
57 14 29
57 15 30
57 16 35
57 17 57
57 18 14
57 19 18
57 20 53
57 21 74
57 22 110
57 23 64
57 24 39
57 25 92
57 26 78
57 27 115
57 28 9
57 29 117
57 30 82
57 31 26
57 32 50
57 33 5
57 34 14
57 35 14
57 36 19
57 37 56
57 38 33
57 39 58
57 40 76
57 41 110
57 42 23
57 43 13
57 44 67
57 45 51
57 46 43
57 47 80
57 48 28
57 49 7
57 50 6
57 51 96
57 52 115
57 53 99
57 54 2
57 55 104
57 56 21
58 0 114
58 1 39
58 2 16
58 3 79
58 4 113
58 5 86
58 6 43
58 7 90
58 8 120
58 9 87
58 10 116
58 11 77
58 12 77
58 13 39
58 14 49
58 15 100
58 16 83
58 17 3
58 18 46
58 19 79
58 20 113
58 21 71
58 22 102
58 23 35
58 24 19
58 25 92
58 26 25
58 27 76
58 28 30
58 29 89
58 30 2
58 31 9
58 32 87
58 33 30
58 34 2
58 35 117
58 36 97
58 37 58
58 38 63
58 39 48
58 40 104
58 41 32
58 42 33
58 43 38
58 44 104
58 45 15
58 46 45
58 47 70
58 48 23
58 49 21
58 50 1
58 51 10
58 52 1
58 53 16
58 54 105
58 55 8
58 56 102
58 57 77
59 0 76
59 1 63
59 2 35
59 3 96
59 4 106
59 5 5
59 6 103
59 7 88
59 8 35
59 9 73
59 10 54
59 11 40
59 12 116
59 13 27
59 14 115
59 15 89
59 16 37
59 17 38
59 18 112
59 19 5
59 20 90
59 21 36
59 22 45
59 23 36
59 24 27
59 25 97
59 26 9
59 27 118
59 28 29
59 29 54
59 30 6
59 31 28
59 32 111
59 33 4
59 34 119
59 35 83
59 36 47
59 37 77
59 38 100
59 39 88
59 40 37
59 41 20
59 42 87
59 43 46
59 44 63
59 45 110
59 46 18
59 47 29
59 48 11
59 49 64
59 50 118
59 51 20
59 52 11
59 53 52
59 54 69
59 55 76
59 56 16
59 57 38
59 58 31
60 0 100
60 1 33
60 2 73
60 3 110
60 4 21
60 5 109
60 6 92
60 7 54
60 8 72
60 9 104
60 10 110
60 11 26
60 12 93
60 13 65
60 14 25
60 15 106
60 16 49
60 17 10
60 18 98
60 19 30
60 20 109
60 21 103
60 22 64
60 23 110
60 24 32
60 25 72
60 26 41
60 27 113
60 28 112
60 29 15
60 30 59
60 31 95
60 32 3
60 33 58
60 34 99
60 35 32
60 36 11
60 37 98
60 38 59
60 39 23
60 40 36
60 41 54
60 42 33
60 43 9
60 44 99
60 45 111
60 46 21
60 47 120
60 48 92
60 49 111
60 50 107
60 51 51
60 52 99
60 53 52
60 54 57
60 55 93
60 56 74
60 57 57
60 58 26
60 59 100
61 0 46
61 1 39
61 2 63
61 3 52
61 4 50
61 5 5
61 6 55
61 7 117
61 8 59
61 9 80
61 10 119
61 11 75
61 12 10
61 13 63
61 14 50
61 15 47
61 16 28
61 17 38
61 18 30
61 19 40
61 20 35
61 21 21
61 22 73
61 23 72
61 24 109
61 25 78
61 26 2
61 27 18
61 28 117
61 29 43
61 30 118
61 31 23
61 32 55
61 33 111
61 34 102
61 35 98
61 36 34
61 37 15
61 38 97
61 39 44
61 40 81
61 41 85
61 42 2
61 43 49
61 44 77
61 45 11
61 46 25
61 47 55
61 48 72
61 49 106
61 50 37
61 51 92
61 52 24
61 53 22
61 54 101
61 55 104
61 56 98
61 57 89
61 58 26
61 59 75
61 60 54
62 0 89
62 1 22
62 2 1
62 3 106
62 4 77
62 5 119
62 6 110
62 7 32
62 8 44
62 9 5
62 10 78
62 11 77
62 12 94
62 13 18
62 14 105
62 15 118
62 16 24
62 17 74
62 18 35
62 19 88
62 20 61
62 21 96
62 22 26
62 23 1
62 24 114
62 25 93
62 26 107
62 27 106
62 28 94
62 29 51
62 30 16
62 31 53
62 32 39
62 33 112
62 34 82
62 35 61
62 36 16
62 37 65
62 38 52
62 39 28
62 40 28
62 41 14
62 42 37
62 43 3
62 44 90
62 45 90
62 46 53
62 47 42
62 48 42
62 49 74
62 50 3
62 51 60
62 52 22
62 53 78
62 54 2
62 55 51
62 56 63
62 57 101
62 58 38
62 59 119
62 60 5
62 61 26
63 0 49
63 1 59
63 2 59
63 3 94
63 4 53
63 5 25
63 6 41
63 7 2
63 8 23
63 9 26
63 10 52
63 11 77
63 12 59
63 13 114
63 14 111
63 15 100
63 16 118
63 17 11
63 18 105
63 19 7
63 20 42
63 21 94
63 22 53
63 23 23
63 24 40
63 25 31
63 26 47
63 27 69
63 28 21
63 29 59
63 30 51
63 31 34
63 32 44
63 33 30
63 34 79
63 35 77
63 36 92
63 37 98
63 38 116
63 39 92
63 40 67
63 41 34
63 42 43
63 43 98
63 44 54
63 45 115
63 46 50
63 47 118
63 48 35
63 49 74
63 50 47
63 51 76
63 52 105
63 53 40
63 54 88
63 55 5
63 56 69
63 57 42
63 58 109
63 59 68
63 60 34
63 61 13
63 62 107
64 0 40
64 1 59
64 2 40
64 3 85
64 4 81
64 5 92
64 6 3
64 7 101
64 8 110
64 9 99
64 10 59
64 11 53
64 12 40
64 13 112
64 14 113
64 15 72
64 16 33
64 17 53
64 18 29
64 19 20
64 20 87
64 21 67
64 22 89
64 23 105
64 24 4
64 25 97
64 26 53
64 27 85
64 28 42
64 29 79
64 30 103
64 31 98
64 32 3
64 33 36
64 34 33
64 35 48
64 36 27
64 37 72
64 38 31
64 39 41
64 40 27
64 41 81
64 42 90
64 43 70
64 44 35
64 45 70
64 46 2
64 47 57
64 48 18
64 49 24
64 50 20
64 51 63
64 52 43
64 53 13
64 54 33
64 55 48
64 56 13
64 57 15
64 58 10
64 59 9
64 60 34
64 61 111
64 62 112
64 63 53
65 0 99
65 1 83
65 2 46
65 3 91
65 4 86
65 5 107
65 6 75
65 7 94
65 8 4
65 9 60
65 10 92
65 11 70
65 12 8
65 13 42
65 14 50
65 15 14
65 16 43
65 17 57
65 18 38
65 19 35
65 20 9
65 21 50
65 22 100
65 23 2
65 24 26
65 25 13
65 26 71
65 27 47
65 28 61
65 29 85
65 30 75
65 31 31
65 32 117
65 33 46
65 34 84
65 35 58
65 36 65
65 37 13
65 38 96
65 39 102
65 40 17
65 41 106
65 42 109
65 43 58
65 44 32
65 45 108
65 46 55
65 47 5
65 48 101
65 49 77
65 50 36
65 51 20
65 52 102
65 53 108
65 54 102
65 55 118
65 56 28
65 57 23
65 58 107
65 59 61
65 60 98
65 61 8
65 62 25
65 63 49
65 64 41
66 0 37
66 1 102
66 2 45
66 3 119
66 4 1
66 5 112
66 6 118
66 7 88
66 8 116
66 9 17
66 10 7
66 11 72
66 12 1
66 13 47
66 14 75
66 15 75
66 16 3
66 17 31
66 18 17
66 19 1
66 20 117
66 21 19
66 22 62
66 23 105
66 24 9
66 25 55
66 26 21
66 27 67
66 28 103
66 29 107
66 30 14
66 31 44
66 32 2
66 33 1
66 34 85
66 35 17
66 36 120
66 37 65
66 38 95
66 39 33
66 40 106
66 41 112
66 42 16
66 43 96
66 44 119
66 45 39
66 46 63
66 47 93
66 48 34
66 49 101
66 50 106
66 51 14
66 52 52
66 53 116
66 54 27
66 55 70
66 56 17
66 57 27
66 58 52
66 59 70
66 60 23
66 61 81
66 62 8
66 63 111
66 64 13
66 65 89
67 0 81
67 1 93
67 2 72
67 3 55
67 4 55
67 5 49
67 6 14
67 7 17
67 8 9
67 9 64
67 10 10
67 11 16
67 12 8
67 13 30
67 14 93
67 15 7
67 16 23
67 17 107
67 18 100
67 19 81
67 20 57
67 21 53
67 22 105
67 23 54
67 24 5
67 25 12
67 26 96
67 27 33
67 28 100
67 29 36
67 30 71
67 31 118
67 32 92
67 33 34
67 34 94
67 35 82
67 36 17
67 37 106
67 38 115
67 39 113
67 40 15
67 41 34
67 42 105
67 43 44
67 44 80
67 45 99
67 46 5
67 47 24
67 48 43
67 49 15
67 50 112
67 51 106
67 52 100
67 53 10
67 54 26
67 55 84
67 56 103
67 57 72
67 58 55
67 59 5
67 60 31
67 61 2
67 62 40
67 63 105
67 64 21
67 65 68
67 66 52
68 0 40
68 1 49
68 2 54
68 3 108
68 4 85
68 5 102
68 6 35
68 7 82
68 8 17
68 9 26
68 10 4
68 11 14
68 12 91
68 13 70
68 14 67
68 15 12
68 16 25
68 17 51
68 18 72
68 19 4
68 20 79
68 21 30
68 22 95
68 23 46
68 24 103
68 25 109
68 26 96
68 27 54
68 28 85
68 29 27
68 30 113
68 31 88
68 32 64
68 33 71
68 34 91
68 35 2
68 36 116
68 37 64
68 38 52
68 39 118
68 40 9
68 41 62
68 42 2
68 43 5
68 44 38
68 45 48
68 46 97
68 47 81
68 48 28
68 49 50
68 50 52
68 51 58
68 52 14
68 53 62
68 54 54
68 55 79
68 56 4
68 57 49
68 58 55
68 59 86
68 60 102
68 61 89
68 62 7
68 63 69
68 64 38
68 65 28
68 66 35
68 67 48
69 0 28
69 1 72
69 2 18
69 3 96
69 4 19
69 5 79
69 6 56
69 7 20
69 8 54
69 9 8
69 10 33
69 11 52
69 12 51
69 13 42
69 14 37
69 15 52
69 16 101
69 17 35
69 18 47
69 19 75
69 20 27
69 21 110
69 22 93
69 23 113
69 24 70
69 25 62
69 26 95
69 27 113
69 28 65
69 29 60
69 30 26
69 31 66
69 32 117
69 33 117
69 34 38
69 35 17
69 36 83
69 37 53
69 38 61
69 39 77
69 40 81
69 41 116
69 42 6
69 43 114
69 44 1
69 45 68
69 46 13
69 47 104
69 48 56
69 49 110
69 50 36
69 51 34
69 52 41
69 53 58
69 54 56
69 55 52
69 56 10
69 57 78
69 58 19
69 59 42
69 60 93
69 61 64
69 62 44
69 63 93
69 64 61
69 65 65
69 66 23
69 67 43
69 68 20
